# Solution for model probrema
# Objective value = 2.0851042971965930e+04
X_0_6 0
X_0_7 0
X_0_8 0
X_1_6 0
X_1_7 0
X_1_8 0
X_2_6 0
X_2_7 0
X_2_8 0
X_3_6 0
X_3_7 0
X_3_8 0
X_0_4 0
X_0_5 0
X_1_4 327
X_1_5 0
X_2_4 126
X_2_5 0
X_3_4 288
X_3_5 0
X_4_6 741
X_5_6 0
X_4_7 0
X_5_7 0
X_4_8 0
X_5_8 0
X_6_9 741
X_7_9 0
X_8_9 0
